c Created with the Wolfram Language : www.wolfram.com
c 
p edge 100 251
e 6 9
e 7 10
e 1 11
e 5 14
e 11 14
e 1 15
e 9 15
e 12 19
e 18 20
e 9 21
e 11 21
e 18 21
e 20 22
e 9 24
e 6 25
e 3 26
e 12 26
e 19 26
e 16 29
e 6 30
e 25 31
e 12 32
e 2 33
e 11 33
e 26 33
e 27 33
e 3 35
e 21 35
e 8 37
e 29 37
e 7 39
e 32 40
e 33 40
e 34 40
e 21 42
e 5 44
e 11 44
e 34 44
e 7 45
e 4 46
e 30 46
e 40 46
e 17 48
e 24 48
e 16 49
e 35 49
e 8 50
e 7 51
e 13 51
e 12 52
e 14 52
e 28 52
e 32 52
e 34 52
e 37 52
e 45 52
e 46 52
e 27 53
e 32 53
e 3 54
e 40 54
e 50 54
e 12 55
e 26 55
e 27 55
e 46 55
e 53 55
e 29 56
e 36 56
e 1 57
e 11 57
e 14 57
e 51 57
e 4 58
e 30 58
e 35 58
e 48 58
e 32 59
e 40 59
e 49 59
e 51 59
e 24 60
e 29 60
e 31 61
e 38 61
e 13 62
e 26 62
e 46 62
e 52 62
e 1 63
e 6 63
e 36 63
e 59 63
e 21 64
e 38 64
e 1 65
e 46 65
e 53 65
e 55 65
e 62 65
e 63 65
e 2 66
e 4 66
e 16 66
e 60 66
e 61 66
e 19 67
e 23 67
e 28 67
e 31 67
e 49 67
e 54 67
e 40 68
e 44 68
e 60 68
e 61 68
e 62 68
e 3 69
e 5 69
e 10 69
e 15 69
e 20 69
e 32 69
e 38 69
e 52 69
e 65 69
e 20 70
e 43 70
e 5 71
e 11 71
e 53 71
e 51 72
e 60 72
e 12 73
e 21 73
e 49 73
e 25 74
e 27 74
e 19 75
e 40 75
e 4 76
e 28 76
e 41 76
e 53 76
e 74 76
e 8 77
e 21 77
e 23 77
e 37 77
e 58 77
e 6 78
e 9 78
e 18 78
e 28 78
e 30 78
e 12 79
e 25 79
e 33 79
e 53 79
e 54 79
e 56 79
e 33 80
e 51 80
e 7 81
e 27 81
e 30 81
e 31 81
e 44 81
e 45 81
e 50 81
e 59 81
e 13 82
e 3 83
e 29 83
e 39 83
e 49 83
e 72 83
e 76 83
e 82 83
e 7 84
e 11 84
e 27 84
e 35 84
e 8 85
e 19 85
e 56 85
e 64 85
e 11 86
e 17 86
e 25 86
e 40 86
e 61 86
e 62 86
e 11 87
e 20 87
e 58 87
e 32 88
e 69 88
e 71 88
e 6 89
e 23 89
e 36 89
e 53 89
e 74 89
e 85 89
e 2 90
e 6 90
e 22 90
e 61 90
e 87 90
e 33 91
e 61 91
e 15 92
e 25 92
e 35 92
e 57 92
e 70 92
e 71 92
e 77 92
e 80 92
e 6 93
e 8 93
e 40 93
e 43 93
e 45 93
e 59 93
e 75 93
e 81 93
e 90 93
e 36 94
e 85 94
e 37 95
e 43 95
e 46 95
e 53 95
e 55 95
e 8 96
e 70 96
e 9 97
e 18 97
e 40 97
e 65 97
e 39 98
e 69 98
e 4 99
e 37 99
e 44 99
e 47 99
e 78 99
e 37 100
e 70 100
